
Gurobi 13.0.2 (win64) logging started Thu Jul 23 05:58:18 2026

Set parameter LogFile to value "E:\codes\ExactEBRP\results\gf_cplex_equivalent_gurobi_replica_round28\runs\stage2__moderate_seed4302__c3_replica__300s\external\native_logs\R.0.0.0.0.0.0.0.1.0_lp.gurobi.log"
Gurobi Optimizer version 13.0.2 build v13.0.2rc1 (win64 - Windows 10.0 (19045.2))

CPU model: 12th Gen Intel(R) Core(TM) i7-12700KF, instruction set [SSE2|AVX|AVX2]
Thread count: 12 physical cores, 20 logical processors, using up to 1 threads

Non-default parameters:
TimeLimit  252.2395375
MIPGap  0
MIPGapAbs  0
LogToConsole  0
Threads  1

Optimize a model with 11919 rows, 3378 columns and 67378 nonzeros (Min)
Model fingerprint: 0x776a5538
Model has 21 linear objective coefficients
Coefficient statistics:
  Matrix range     [2e-04, 2e+04]
  Objective range  [7e-03, 1e+00]
  Bounds range     [2e-04, 1e+02]
  RHS range        [2e-04, 5e+04]

Presolve removed 880 rows and 104 columns
Presolve time: 0.04s
Presolved: 11039 rows, 3275 columns, 64041 nonzeros

Iteration    Objective       Primal Inf.    Dual Inf.      Time
       0    1.8962054e-04   1.097778e+02   0.000000e+00      0s
    1229    1.8962054e-04   0.000000e+00   0.000000e+00      0s

Solved in 1229 iterations and 0.11 seconds (0.30 work units)
Optimal objective  1.896205425e-04

User-callback calls 1374, time in user-callback 0.00 sec
